S = 4;
start = [|0,9,0,0,0,0,0,0,0,0,16,3,0,14,5,0|
0,0,16,7,15,0,0,0,0,0,0,0,0,0,0,0|
0,0,0,3,1,0,0,0,0,5,9,0,0,2,0,0|
11,0,0,0,0,0,5,2,0,0,0,0,0,0,0,3|
2,6,0,0,0,0,0,0,0,0,1,0,0,0,0,0|
0,0,7,0,0,12,0,0,0,0,0,0,0,0,2,10|
14,0,0,0,0,0,7,16,10,2,0,0,0,0,6,12|
0,0,0,0,0,0,0,1,0,7,5,0,14,16,0,0|
0,0,0,2,0,3,0,0,6,8,0,16,0,5,4,0|
0,0,0,0,0,8,0,0,13,4,0,1,2,0,0,0|
0,0,0,8,0,1,0,0,7,0,0,0,0,0,0,9|
0,0,6,0,0,5,0,0,15,9,14,12,1,0,0,0|
3,0,0,0,0,0,1,0,16,0,0,0,0,15,12,0|
0,12,0,0,0,0,0,0,0,0,0,0,0,0,0,0|
7,0,0,0,3,13,0,9,0,0,0,0,0,0,0,0|
13,0,0,0,0,0,0,0,0,0,8,7,0,0,0,0|];